CMD:
./solvers/bin/cadical --plain --no-reduce -t 1600 ./data/cnfs//qspiflash_dualflexpress_divthree-p085/qspiflash_dualflexpress_divthree-p085.8.cnf

c --- [ banner ] -------------------------------------------------------------
c 
c CaDiCaL SAT Solver
c Copyright (c) 2016-2024
c A. Biere, M. Fleury, N. Froleyks, K. Fazekas, F. Pollitt, T. Faller
c JKU Linz, University of Freiburg, TU Wien
c 
c Version 2.1.3 5296d3d2a9bf48c154ab2acb5e44625776d821bf
c g++ (Gentoo 12.3.1_p20230526 p2) 12.3.1 20230526 -Wall -Wextra -O3 -DNDEBUG
c Sat Aug 9 07:26:21 PDT 2025 Linux cedar2.int.cedar.computecanada.ca 5.14.0-362.24.2.el9_3.x86_64 x86_64
c 
c --- [ limit ] --------------------------------------------------------------
c 
c setting time limit to 1600 seconds real time (due to '-t 1600')
c 
c --- [ parsing input ] ------------------------------------------------------
c 
c reading DIMACS file from './data/cnfs//qspiflash_dualflexpress_divthree-p085/qspiflash_dualflexpress_divthree-p085.8.cnf'
c opening file to read './data/cnfs//qspiflash_dualflexpress_divthree-p085/qspiflash_dualflexpress_divthree-p085.8.cnf'
c found 'p cnf 27126 77882' header
c parsed 77882 clauses in 0.01 seconds process time
c 
c --- [ options ] ------------------------------------------------------------
c 
c   --compact=false                (different from default 'true')
c   --decompose=false              (different from default 'true')
c   --deduplicate=false            (different from default 'true')
c   --elim=false                   (different from default 'true')
c   --probe=false                  (different from default 'true')
c   --reduce=false                 (different from default 'true')
c   --subsume=false                (different from default 'true')
c   --ternary=false                (different from default 'true')
c   --transred=false               (different from default 'true')
c   --vivify=false                 (different from default 'true')
c 
c --- [ solving ] ------------------------------------------------------------
c 
c time measured in process time since initialization
c 
c  seconds  reductions  redundant  irredundant
c         MB    restarts       trail      variables
c          level   conflicts       glue        remaining
c 
c *  0.01 15  0 0   0    0    0  0% 0 64626 19144 71%
c {  0.02 15  0 0   0    0    0  0% 0 64626 19144 71%
c i  0.02 15 23 0   0    5    3 33% 2 64626 19130 71%
c i  0.02 15 21 0   0    8    5 35% 2 64626 19125 71%
c i  0.02 15 18 0   0   14    9 36% 2 64626 19120 70%
c i  0.02 15 11 0   0   38   30 37% 2 64626 19111 70%
c i  0.02 15 10 0   0   39   30 37% 2 64626 19107 70%
c i  0.02 15  8 0   2  101   83 38% 2 64626 19095 70%
c i  0.02 15  8 0   2  115   94 39% 2 64626 18544 68%
c i  0.02 15  8 0   4  130  104 39% 2 64626 18515 68%
c }  0.02 15  8 0   4  135  106 39% 2 64626 17570 65%
c 0  0.02 15  8 0   4  135  106 39% 2 64626 17570 65%
c 
c --- [ result ] -------------------------------------------------------------
c 
s UNSATISFIABLE
c 
c --- [ run-time profiling ] -------------------------------------------------
c 
c process time taken by individual solving procedures
c (percentage relative to process time for solving)
c 
c         0.01   98.97% search
c         0.01   98.30% parse
c         0.01   60.05% unstable
c         0.00   38.79% lucky
c         0.00    0.00% simplify
c   =================================
c         0.01   49.34% solve
c 
c last line shows process time for solving
c (percentage relative to total process time)
c 
c --- [ statistics ] ---------------------------------------------------------
c 
c chronological:                65        48.15 %  of conflicts
c conflicts:                   135     10940.92    per second
c decisions:                   262     21233.49    per second
c fixed:                      9522        35.10 %  of all variables
c learned:                     126        93.33 %  per conflict
c learned_lits:                814       100.00 %  learned literals
c minimized:                     0         0.00 %  learned literals
c shrunken:                    218        26.78 %  learned literals
c minishrunken:                 43         5.28 %  learned literals
c otfs:                          2         1.48 %  of conflict
c propagations:             157141        12.74 M  per second
c restarts:                      4        33.75    interval
c subsumed:                     11         0.02 %  of all clauses
c strengthened:                  2         0.00 %  of all clauses
c 
c seconds are measured in process time for solving
c 
c --- [ resources ] ----------------------------------------------------------
c 
c total process time since initialization:         0.03    seconds
c total real time since initialization:            0.03    seconds
c maximum resident set size of process:           29.33    MB
c 
c --- [ shutting down ] ------------------------------------------------------
c 
c exit 20
